47 54 491
54 26 967
26 49 560
49 55 711
55 28 487
28 6 404
6 3 385
3 43 1096
43 13 790
13 51 644
51 40 1042
40 7 1176
7 37 517
37 5 467
5 35 323
35 20 810
20 50 763
50 24 868
24 38 802
38 8 368
8 44 383
44 32 676
32 41 362
41 19 1369
19 48 897
48 17 415
17 29 1002
29 21 516
21 23 176
23 53 388
53 34 396
34 10 925
10 22 117
22 16 737
16 39 451
39 46 214
46 36 402
36 15 679
15 25 1148
25 31 299
31 27 4460
27 1 4123
1 33 7621
33 42 4807
42 11 1343
11 45 436
45 52 722
52 2 598
2 14 433
14 9 471
9 12 723
12 18 768
18 4 606
4 30 380
30 47 944
